c Maximum weighted clique instances generated from exactcolors.
c cutoff: 11422785.
c A clique of value > scalef (11422785) defines an improving stable sets for coloring.
p edge 31 0
n 1 11422785
n 2 11422785
n 3 11422785
n 4 11422785
n 5 11422785
n 6 11422785
n 7 11422785
n 8 11422785
n 9 11422785
n 10 11422785
n 11 11422785
n 12 11422785
n 13 11422785
n 14 11422785
n 15 11422785
n 16 11422785
n 17 11422785
n 18 11422785
n 19 11422785
n 20 11422785
n 21 11422785
n 22 11422785
n 23 11422785
n 24 11422785
n 25 11422785
n 26 11422785
n 27 11422785
n 28 11422785
n 29 11422785
n 30 11422785
n 31 11422785
